p cnf 200 304 25
c p show 1 2 3 4 5 6 7 8 9 10 11 12 13 14 15 16 17 18 19 20 21 22 23 24 25
-166 -18 0
-166 9 0
-167 -8 9 0
-168 167 0
-168 166 0
-169 -20 22 0
-170 12 -8 0
-171 170 169 0
-172 -12 0
-172 8 0
-173 20 0
-173 -22 0
-174 173 172 0
-175 174 0
-175 171 0
-176 175 168 0
-177 -6 0
-177 -17 0
-178 17 0
-178 6 0
-179 178 177 0
-180 8 17 0
-181 180 179 0
-182 -3 0
-182 24 0
-183 -23 0
-183 24 0
-185 183 182 0
-186 185 181 0
-187 186 0
-187 176 0
-188 11 0
-188 19 0
-189 -19 0
-189 -11 0
-191 189 188 0
-192 -16 0
-192 9 0
-193 192 191 0
-194 -6 0
-194 -3 0
-195 7 0
-195 9 0
-196 195 194 0
-197 196 0
-197 193 0
-198 8 18 0
-199 -24 0
-199 12 0
-200 199 198 0
-26 13 -5 0
-27 6 0
-27 25 0
-28 27 0
-28 26 0
-29 28 0
-29 200 0
-30 29 0
-30 197 0
-31 30 0
-31 187 0
-32 -1 0
-32 -22 0
-33 -10 0
-33 15 0
-184 33 32 0
-190 -8 14 0
-34 2 0
-34 -8 0
-35 34 190 0
-36 35 184 0
-37 -24 -3 0
-38 -2 -8 0
-39 38 37 0
-40 -6 0
-40 -24 0
-41 24 0
-41 6 0
-42 41 40 0
-43 9 3 0
-44 43 0
-44 42 0
-45 -9 0
-45 -3 0
-46 6 24 0
-47 -24 -6 0
-48 47 0
-48 46 0
-49 48 0
-49 45 0
-50 49 44 0
-51 50 39 0
-52 51 0
-52 36 0
-53 2 0
-54 -23 0
-54 -17 0
-55 54 53 0
-56 -4 0
-56 7 0
-57 7 -10 0
-58 57 56 0
-59 58 55 0
-60 -1 25 0
-61 -22 17 0
-62 61 0
-62 60 0
-63 -16 0
-63 10 0
-64 -20 7 0
-65 64 63 0
-66 65 62 0
-67 66 59 0
-68 1 0
-68 -25 0
-69 22 0
-69 -17 0
-70 69 68 0
-71 16 -10 0
-72 20 0
-72 -7 0
-73 72 0
-73 71 0
-74 73 0
-74 70 0
-75 -2 0
-76 23 17 0
-77 76 0
-77 75 0
-78 4 -7 0
-79 -7 0
-79 10 0
-80 79 0
-80 78 0
-81 80 0
-81 77 0
-82 81 74 0
-83 82 0
-83 67 0
-84 83 52 0
-85 84 0
-85 31 0
-86 23 0
-86 -24 0
-87 -14 0
-87 -3 0
-88 87 86 0
-89 -16 0
-89 -1 0
-90 -1 20 0
-91 90 89 0
-92 91 0
-92 88 0
-93 2 3 0
-94 -3 -2 0
-95 94 0
-95 93 0
-96 15 17 0
-97 96 95 0
-98 -4 23 0
-99 14 16 0
-100 99 98 0
-101 100 97 0
-102 101 0
-102 92 0
-103 -25 -8 0
-104 23 0
-105 104 0
-105 103 0
-106 -6 -14 0
-107 -17 0
-107 -19 0
-108 107 0
-108 106 0
-109 108 0
-109 105 0
-110 22 -9 0
-111 63 110 0
-112 19 20 0
-113 -24 0
-113 -9 0
-114 113 112 0
-115 114 0
-115 111 0
-116 115 109 0
-117 116 102 0
-118 -16 0
-118 3 0
-119 1 0
-119 -23 0
-120 119 0
-120 118 0
-121 -1 23 0
-122 16 -3 0
-123 122 0
-123 121 0
-124 123 120 0
-125 -3 0
-125 -25 0
-126 -1 0
-126 -6 0
-127 126 0
-127 125 0
-128 127 0
-128 124 0
-129 19 0
-129 -2 0
-130 11 7 0
-131 130 0
-131 129 0
-132 -20 0
-132 1 0
-133 -20 -10 0
-134 133 0
-134 132 0
-135 134 0
-135 131 0
-136 20 -1 0
-137 20 0
-137 10 0
-138 137 136 0
-139 -19 2 0
-140 -11 0
-140 -7 0
-141 140 139 0
-142 141 0
-142 138 0
-143 142 135 0
-144 143 0
-144 128 0
-145 -14 0
-145 -24 0
-146 18 -4 0
-147 146 0
-147 145 0
-148 -18 0
-148 4 0
-149 14 24 0
-150 149 0
-150 148 0
-151 150 147 0
-152 20 -21 0
-153 24 -24 0
-154 153 152 0
-155 154 151 0
-156 12 -20 0
-157 8 -21 0
-158 157 0
-158 156 0
-159 -15 0
-159 -14 0
-160 8 0
-160 24 0
-161 160 0
-161 159 0
-162 161 0
-162 158 0
-163 162 0
-163 155 0
-164 163 144 0
-165 164 0
-165 117 0
165 85 0
-170 -172 0
-172 -170 0
-169 -173 0
-45 -43 0
-43 -45 0
-48 -42 0
-60 -68 0
-69 -61 0
-61 -69 0
-62 -70 0
-70 -62 0
-71 -63 0
-72 -64 0
-73 -65 0
-74 -66 0
-53 -75 0
-76 -54 0
-54 -76 0
-55 -77 0
-77 -55 0
-78 -56 0
-56 -78 0
-79 -57 0
-57 -79 0
-58 -80 0
-80 -58 0
-81 -59 0
-59 -81 0
-121 -119 0
-119 -121 0
-118 -122 0
-122 -118 0
-132 -136 0
-133 -137 0
-134 -138 0
-129 -139 0
-130 -140 0
-131 -141 0
-141 -131 0
-146 -148 0
-149 -145 0
